\Problem name: 

Minimize
OBJROW: 1.50000 x_0 + 2 x_1 + 3 x_2 + 0.80000 x_3
Subject To
constr(0):  7 x_0 + 8 x_1 + 30 x_2 + 6 x_3 >= 3
constr(1):  550 x_0 + 300 x_1 + 400 x_2 + 250 x_3 >= 50
Bounds
End
